; benchmark generated from python API
(set-info :status unknown)
(declare-fun x_epoch () Int)
(declare-fun y_epoch () Int)
(declare-fun x_plus_epoch () Int)
(declare-fun x_plus_month () Int)
(declare-fun x_plus_year () Int)
(declare-fun x_plus_day () Int)
(assert
 (>= x_epoch (- 36584)))
(assert
 (<= x_epoch 36829))
(assert
 (>= y_epoch (- 36584)))
(assert
 (<= y_epoch 36829))
(assert
 (= x_epoch 8371))
(assert
 (>= x_plus_epoch (- 36584)))
(assert
 (<= x_plus_epoch 36829))
(assert
 (let (($x1317 (= x_plus_month 11)))
 (let (($x989 (= x_plus_month 9)))
 (let (($x2201 (= x_plus_month 6)))
 (let (($x1257 (= x_plus_month 4)))
 (let ((?x2493 (ite (or $x1257 $x2201 $x989 $x1317) 30 31)))
 (let (($x3391 (= (mod x_plus_year 400) 0)))
 (let (($x2707 (= (mod x_plus_year 4) 0)))
 (let (($x3449 (or (and $x2707 (and (distinct (mod x_plus_year 100) 0) true)) $x3391)))
 (let (($x1128 (= x_plus_month 2)))
 (let (($x1192 (>= x_plus_day 1)))
 (let (($x1056 (<= x_plus_month 12)))
 (let (($x1029 (>= x_plus_month 1)))
 (let (($x3285 (<= x_plus_year 2100)))
 (let (($x583 (>= x_plus_year 1900)))
 (and $x583 $x3285 $x1029 $x1056 $x1192 (<= x_plus_day (ite $x1128 (ite $x3449 29 28) ?x2493))))))))))))))))))
(assert
 (let (($x3391 (= (mod x_plus_year 400) 0)))
 (let (($x2707 (= (mod x_plus_year 4) 0)))
 (let (($x3449 (or (and $x2707 (and (distinct (mod x_plus_year 100) 0) true)) $x3391)))
 (let ((?x2290 (ite (= 2 x_plus_month) (ite $x3449 31 31) (ite (= 1 x_plus_month) (ite $x3449 0 0) 0))))
 (let ((?x2848 (ite (= 4 x_plus_month) (ite $x3449 91 90) (ite (= 3 x_plus_month) (ite $x3449 60 59) ?x2290))))
 (let ((?x2303 (ite (= 6 x_plus_month) (ite $x3449 152 151) (ite (= 5 x_plus_month) (ite $x3449 121 120) ?x2848))))
 (let ((?x3164 (ite (= 8 x_plus_month) (ite $x3449 213 212) (ite (= 7 x_plus_month) (ite $x3449 182 181) ?x2303))))
 (let ((?x1418 (ite (= 10 x_plus_month) (ite $x3449 274 273) (ite (= 9 x_plus_month) (ite $x3449 244 243) ?x3164))))
 (let ((?x1763 (ite (= 12 x_plus_month) (ite $x3449 335 334) (ite (= 11 x_plus_month) (ite $x3449 305 304) ?x1418))))
 (let ((?x1973 (+ (* 365 (- x_plus_year 1)) (div (- x_plus_year 1) 4))))
 (let ((?x3104 (+ (- ?x1973 (div (- x_plus_year 1) 100)) (div (- x_plus_year 1) 400))))
 (= x_plus_epoch (- (+ (+ ?x3104 ?x1763) (- x_plus_day 1)) 730179))))))))))))))
(assert
 (let ((?x638 (+ x_epoch 730179)))
 (let ((?x468 (mod ?x638 146097)))
 (let ((?x413 (div ?x468 36524)))
 (let ((?x311 (ite (<= 4 ?x413) 3 ?x413)))
 (let ((?x664 (- ?x468 (* ?x311 36524))))
 (let ((?x2143 (mod ?x664 1461)))
 (let ((?x2906 (div ?x2143 365)))
 (let ((?x1133 (ite (<= 4 ?x2906) 3 ?x2906)))
 (let ((?x2783 (+ (+ (* (div ?x638 146097) 400) (* ?x311 100)) (* (div ?x664 1461) 4))))
 (let ((?x3207 (+ (+ ?x2783 ?x1133) 1)))
 (let (($x1815 (or (and (= (mod ?x3207 4) 0) (and (distinct (mod ?x3207 100) 0) true)) (= (mod ?x3207 400) 0))))
 (let ((?x2592 (- ?x2143 (* ?x1133 365))))
 (let ((?x859 (ite $x1815 31 31)))
 (let (($x483 (>= ?x2592 ?x859)))
 (let ((?x2766 (ite $x483 (+ (- ?x2592 ?x859) 1) (+ (- ?x2592 (ite $x1815 0 0)) 1))))
 (let ((?x3066 (ite $x1815 60 59)))
 (let (($x466 (>= ?x2592 ?x3066)))
 (let ((?x3014 (ite $x1815 91 90)))
 (let (($x708 (>= ?x2592 ?x3014)))
 (let ((?x224 (ite $x708 (+ (- ?x2592 ?x3014) 1) (ite $x466 (+ (- ?x2592 ?x3066) 1) ?x2766))))
 (let ((?x1820 (ite $x1815 121 120)))
 (let (($x1341 (>= ?x2592 ?x1820)))
 (let ((?x673 (ite $x1815 152 151)))
 (let (($x211 (>= ?x2592 ?x673)))
 (let ((?x2239 (ite $x211 (+ (- ?x2592 ?x673) 1) (ite $x1341 (+ (- ?x2592 ?x1820) 1) ?x224))))
 (let ((?x1178 (ite $x1815 182 181)))
 (let (($x788 (>= ?x2592 ?x1178)))
 (let ((?x679 (ite $x1815 213 212)))
 (let (($x577 (>= ?x2592 ?x679)))
 (let ((?x2109 (ite $x577 (+ (- ?x2592 ?x679) 1) (ite $x788 (+ (- ?x2592 ?x1178) 1) ?x2239))))
 (let ((?x604 (ite $x1815 244 243)))
 (let (($x1589 (>= ?x2592 ?x604)))
 (let ((?x2532 (ite $x1815 274 273)))
 (let (($x325 (>= ?x2592 ?x2532)))
 (let ((?x235 (ite $x325 (+ (- ?x2592 ?x2532) 1) (ite $x1589 (+ (- ?x2592 ?x604) 1) ?x2109))))
 (let ((?x248 (ite $x1815 305 304)))
 (let (($x1853 (>= ?x2592 ?x248)))
 (let ((?x318 (ite $x1815 335 334)))
 (let (($x3178 (>= ?x2592 ?x318)))
 (let ((?x824 (ite $x3178 (+ (- ?x2592 ?x318) 1) (ite $x1853 (+ (- ?x2592 ?x248) 1) ?x235))))
 (let ((?x2279 (+ (* 0 12) 3)))
 (let ((?x362 (ite $x1341 5 (ite $x708 4 (ite $x466 3 (ite $x483 2 1))))))
 (let ((?x610 (ite $x1589 9 (ite $x577 8 (ite $x788 7 (ite $x211 6 ?x362))))))
 (let ((?x2069 (ite $x3178 12 (ite $x1853 11 (ite $x325 10 ?x610)))))
 (let ((?x1235 (+ ?x2069 ?x2279)))
 (let ((?x1743 (- ?x1235 1)))
 (let ((?x1298 (+ (mod ?x1743 12) 1)))
 (let ((?x2816 (ite (or (= ?x1298 4) (= ?x1298 6) (= ?x1298 9) (= ?x1298 11)) 30 31)))
 (let (($x1049 (and (= (mod (+ ?x3207 (+ 0 (div ?x1743 12))) 4) 0) (and (distinct (mod (+ ?x3207 (+ 0 (div ?x1743 12))) 100) 0) true))))
 (let (($x1958 (or $x1049 (= (mod (+ ?x3207 (+ 0 (div ?x1743 12))) 400) 0))))
 (let ((?x3211 (ite (= ?x1298 2) (ite $x1958 29 28) ?x2816)))
 (let ((?x3867 (ite (> 1 ?x824) 1 (ite (> ?x824 ?x3211) ?x3211 ?x824))))
 (let ((?x3847 (ite (> 1 ?x3867) 1 (ite (> ?x3867 ?x3211) ?x3211 ?x3867))))
 (let ((?x2730 (ite (= 2 ?x1298) (ite $x1958 31 31) (ite (= 1 ?x1298) (ite $x1958 0 0) 0))))
 (let ((?x2437 (ite (= 4 ?x1298) (ite $x1958 91 90) (ite (= 3 ?x1298) (ite $x1958 60 59) ?x2730))))
 (let ((?x3986 (ite (= 6 ?x1298) (ite $x1958 152 151) (ite (= 5 ?x1298) (ite $x1958 121 120) ?x2437))))
 (let ((?x3664 (ite (= 8 ?x1298) (ite $x1958 213 212) (ite (= 7 ?x1298) (ite $x1958 182 181) ?x3986))))
 (let ((?x3647 (ite (= 10 ?x1298) (ite $x1958 274 273) (ite (= 9 ?x1298) (ite $x1958 244 243) ?x3664))))
 (let ((?x3370 (ite (= 12 ?x1298) (ite $x1958 335 334) (ite (= 11 ?x1298) (ite $x1958 305 304) ?x3647))))
 (let ((?x4023 (+ (* 365 (- (+ ?x3207 (+ 0 (div ?x1743 12))) 1)) (div (- (+ ?x3207 (+ 0 (div ?x1743 12))) 1) 4))))
 (let ((?x4043 (+ (- ?x4023 (div (- (+ ?x3207 (+ 0 (div ?x1743 12))) 1) 100)) (div (- (+ ?x3207 (+ 0 (div ?x1743 12))) 1) 400))))
 (let ((?x2617 (+ (+ (- (+ (+ ?x4043 ?x3370) (- ?x3847 1)) 730179) 0) 730179)))
 (let ((?x3634 (mod ?x2617 146097)))
 (let ((?x3635 (div ?x3634 36524)))
 (let ((?x3608 (ite (<= 4 ?x3635) 3 ?x3635)))
 (let ((?x3610 (- ?x3634 (* ?x3608 36524))))
 (let ((?x4002 (mod ?x3610 1461)))
 (let ((?x4003 (div ?x4002 365)))
 (let ((?x4005 (ite (<= 4 ?x4003) 3 ?x4003)))
 (let ((?x2695 (+ (+ (* (div ?x2617 146097) 400) (* ?x3608 100)) (* (div ?x3610 1461) 4))))
 (let ((?x1536 (+ (+ ?x2695 ?x4005) 1)))
 (let ((?x3619 (+ 0 (div ?x1743 12))))
 (let ((?x1770 (+ ?x3207 ?x3619)))
 (let (($x3530 (= 0 0)))
 (let ((?x3537 (ite $x3530 ?x1770 ?x1536)))
 (= x_plus_year ?x3537)))))))))))))))))))))))))))))))))))))))))))))))))))))))))))))))))))))))))))))
(assert
 (let ((?x638 (+ x_epoch 730179)))
 (let ((?x468 (mod ?x638 146097)))
 (let ((?x413 (div ?x468 36524)))
 (let ((?x311 (ite (<= 4 ?x413) 3 ?x413)))
 (let ((?x664 (- ?x468 (* ?x311 36524))))
 (let ((?x2143 (mod ?x664 1461)))
 (let ((?x2906 (div ?x2143 365)))
 (let ((?x1133 (ite (<= 4 ?x2906) 3 ?x2906)))
 (let ((?x2783 (+ (+ (* (div ?x638 146097) 400) (* ?x311 100)) (* (div ?x664 1461) 4))))
 (let ((?x3207 (+ (+ ?x2783 ?x1133) 1)))
 (let (($x1815 (or (and (= (mod ?x3207 4) 0) (and (distinct (mod ?x3207 100) 0) true)) (= (mod ?x3207 400) 0))))
 (let ((?x2592 (- ?x2143 (* ?x1133 365))))
 (let ((?x859 (ite $x1815 31 31)))
 (let (($x483 (>= ?x2592 ?x859)))
 (let ((?x2766 (ite $x483 (+ (- ?x2592 ?x859) 1) (+ (- ?x2592 (ite $x1815 0 0)) 1))))
 (let ((?x3066 (ite $x1815 60 59)))
 (let (($x466 (>= ?x2592 ?x3066)))
 (let ((?x3014 (ite $x1815 91 90)))
 (let (($x708 (>= ?x2592 ?x3014)))
 (let ((?x224 (ite $x708 (+ (- ?x2592 ?x3014) 1) (ite $x466 (+ (- ?x2592 ?x3066) 1) ?x2766))))
 (let ((?x1820 (ite $x1815 121 120)))
 (let (($x1341 (>= ?x2592 ?x1820)))
 (let ((?x673 (ite $x1815 152 151)))
 (let (($x211 (>= ?x2592 ?x673)))
 (let ((?x2239 (ite $x211 (+ (- ?x2592 ?x673) 1) (ite $x1341 (+ (- ?x2592 ?x1820) 1) ?x224))))
 (let ((?x1178 (ite $x1815 182 181)))
 (let (($x788 (>= ?x2592 ?x1178)))
 (let ((?x679 (ite $x1815 213 212)))
 (let (($x577 (>= ?x2592 ?x679)))
 (let ((?x2109 (ite $x577 (+ (- ?x2592 ?x679) 1) (ite $x788 (+ (- ?x2592 ?x1178) 1) ?x2239))))
 (let ((?x604 (ite $x1815 244 243)))
 (let (($x1589 (>= ?x2592 ?x604)))
 (let ((?x2532 (ite $x1815 274 273)))
 (let (($x325 (>= ?x2592 ?x2532)))
 (let ((?x235 (ite $x325 (+ (- ?x2592 ?x2532) 1) (ite $x1589 (+ (- ?x2592 ?x604) 1) ?x2109))))
 (let ((?x248 (ite $x1815 305 304)))
 (let (($x1853 (>= ?x2592 ?x248)))
 (let ((?x318 (ite $x1815 335 334)))
 (let (($x3178 (>= ?x2592 ?x318)))
 (let ((?x824 (ite $x3178 (+ (- ?x2592 ?x318) 1) (ite $x1853 (+ (- ?x2592 ?x248) 1) ?x235))))
 (let ((?x2279 (+ (* 0 12) 3)))
 (let ((?x362 (ite $x1341 5 (ite $x708 4 (ite $x466 3 (ite $x483 2 1))))))
 (let ((?x610 (ite $x1589 9 (ite $x577 8 (ite $x788 7 (ite $x211 6 ?x362))))))
 (let ((?x2069 (ite $x3178 12 (ite $x1853 11 (ite $x325 10 ?x610)))))
 (let ((?x1235 (+ ?x2069 ?x2279)))
 (let ((?x1743 (- ?x1235 1)))
 (let ((?x1298 (+ (mod ?x1743 12) 1)))
 (let ((?x2816 (ite (or (= ?x1298 4) (= ?x1298 6) (= ?x1298 9) (= ?x1298 11)) 30 31)))
 (let (($x1049 (and (= (mod (+ ?x3207 (+ 0 (div ?x1743 12))) 4) 0) (and (distinct (mod (+ ?x3207 (+ 0 (div ?x1743 12))) 100) 0) true))))
 (let (($x1958 (or $x1049 (= (mod (+ ?x3207 (+ 0 (div ?x1743 12))) 400) 0))))
 (let ((?x3211 (ite (= ?x1298 2) (ite $x1958 29 28) ?x2816)))
 (let ((?x3867 (ite (> 1 ?x824) 1 (ite (> ?x824 ?x3211) ?x3211 ?x824))))
 (let ((?x3847 (ite (> 1 ?x3867) 1 (ite (> ?x3867 ?x3211) ?x3211 ?x3867))))
 (let ((?x2730 (ite (= 2 ?x1298) (ite $x1958 31 31) (ite (= 1 ?x1298) (ite $x1958 0 0) 0))))
 (let ((?x2437 (ite (= 4 ?x1298) (ite $x1958 91 90) (ite (= 3 ?x1298) (ite $x1958 60 59) ?x2730))))
 (let ((?x3986 (ite (= 6 ?x1298) (ite $x1958 152 151) (ite (= 5 ?x1298) (ite $x1958 121 120) ?x2437))))
 (let ((?x3664 (ite (= 8 ?x1298) (ite $x1958 213 212) (ite (= 7 ?x1298) (ite $x1958 182 181) ?x3986))))
 (let ((?x3647 (ite (= 10 ?x1298) (ite $x1958 274 273) (ite (= 9 ?x1298) (ite $x1958 244 243) ?x3664))))
 (let ((?x3370 (ite (= 12 ?x1298) (ite $x1958 335 334) (ite (= 11 ?x1298) (ite $x1958 305 304) ?x3647))))
 (let ((?x4023 (+ (* 365 (- (+ ?x3207 (+ 0 (div ?x1743 12))) 1)) (div (- (+ ?x3207 (+ 0 (div ?x1743 12))) 1) 4))))
 (let ((?x4043 (+ (- ?x4023 (div (- (+ ?x3207 (+ 0 (div ?x1743 12))) 1) 100)) (div (- (+ ?x3207 (+ 0 (div ?x1743 12))) 1) 400))))
 (let ((?x2617 (+ (+ (- (+ (+ ?x4043 ?x3370) (- ?x3847 1)) 730179) 0) 730179)))
 (let ((?x3634 (mod ?x2617 146097)))
 (let ((?x3635 (div ?x3634 36524)))
 (let ((?x3608 (ite (<= 4 ?x3635) 3 ?x3635)))
 (let ((?x3610 (- ?x3634 (* ?x3608 36524))))
 (let ((?x4002 (mod ?x3610 1461)))
 (let ((?x4003 (div ?x4002 365)))
 (let ((?x4005 (ite (<= 4 ?x4003) 3 ?x4003)))
 (let ((?x2695 (+ (+ (* (div ?x2617 146097) 400) (* ?x3608 100)) (* (div ?x3610 1461) 4))))
 (let ((?x1536 (+ (+ ?x2695 ?x4005) 1)))
 (let (($x2705 (or (and (= (mod ?x1536 4) 0) (and (distinct (mod ?x1536 100) 0) true)) (= (mod ?x1536 400) 0))))
 (let ((?x1265 (ite $x2705 31 31)))
 (let ((?x792 (- ?x4002 (* ?x4005 365))))
 (let (($x1978 (>= ?x792 ?x1265)))
 (let ((?x1440 (ite $x2705 60 59)))
 (let (($x3548 (>= ?x792 ?x1440)))
 (let ((?x1848 (ite $x2705 91 90)))
 (let (($x3708 (>= ?x792 ?x1848)))
 (let ((?x3125 (ite $x2705 121 120)))
 (let (($x3685 (>= ?x792 ?x3125)))
 (let ((?x3670 (ite $x3685 5 (ite $x3708 4 (ite $x3548 3 (ite $x1978 2 1))))))
 (let ((?x2219 (ite $x2705 152 151)))
 (let (($x3728 (>= ?x792 ?x2219)))
 (let ((?x2555 (ite $x2705 182 181)))
 (let (($x3712 (>= ?x792 ?x2555)))
 (let ((?x3722 (ite $x2705 213 212)))
 (let (($x505 (>= ?x792 ?x3722)))
 (let ((?x496 (ite $x2705 244 243)))
 (let (($x3698 (>= ?x792 ?x496)))
 (let ((?x1161 (ite $x3698 9 (ite $x505 8 (ite $x3712 7 (ite $x3728 6 ?x3670))))))
 (let ((?x713 (ite $x2705 274 273)))
 (let (($x3705 (>= ?x792 ?x713)))
 (let ((?x1640 (ite $x2705 305 304)))
 (let (($x3668 (>= ?x792 ?x1640)))
 (let ((?x1315 (ite $x2705 335 334)))
 (let (($x3711 (>= ?x792 ?x1315)))
 (let (($x3530 (= 0 0)))
 (let ((?x277 (ite $x3530 ?x1298 (ite $x3711 12 (ite $x3668 11 (ite $x3705 10 ?x1161))))))
 (= x_plus_month ?x277)))))))))))))))))))))))))))))))))))))))))))))))))))))))))))))))))))))))))))))))))))))))))))))))))))))
(assert
 (let ((?x638 (+ x_epoch 730179)))
 (let ((?x468 (mod ?x638 146097)))
 (let ((?x413 (div ?x468 36524)))
 (let ((?x311 (ite (<= 4 ?x413) 3 ?x413)))
 (let ((?x664 (- ?x468 (* ?x311 36524))))
 (let ((?x2143 (mod ?x664 1461)))
 (let ((?x2906 (div ?x2143 365)))
 (let ((?x1133 (ite (<= 4 ?x2906) 3 ?x2906)))
 (let ((?x2783 (+ (+ (* (div ?x638 146097) 400) (* ?x311 100)) (* (div ?x664 1461) 4))))
 (let ((?x3207 (+ (+ ?x2783 ?x1133) 1)))
 (let (($x1815 (or (and (= (mod ?x3207 4) 0) (and (distinct (mod ?x3207 100) 0) true)) (= (mod ?x3207 400) 0))))
 (let ((?x2592 (- ?x2143 (* ?x1133 365))))
 (let ((?x859 (ite $x1815 31 31)))
 (let (($x483 (>= ?x2592 ?x859)))
 (let ((?x2766 (ite $x483 (+ (- ?x2592 ?x859) 1) (+ (- ?x2592 (ite $x1815 0 0)) 1))))
 (let ((?x3066 (ite $x1815 60 59)))
 (let (($x466 (>= ?x2592 ?x3066)))
 (let ((?x3014 (ite $x1815 91 90)))
 (let (($x708 (>= ?x2592 ?x3014)))
 (let ((?x224 (ite $x708 (+ (- ?x2592 ?x3014) 1) (ite $x466 (+ (- ?x2592 ?x3066) 1) ?x2766))))
 (let ((?x1820 (ite $x1815 121 120)))
 (let (($x1341 (>= ?x2592 ?x1820)))
 (let ((?x673 (ite $x1815 152 151)))
 (let (($x211 (>= ?x2592 ?x673)))
 (let ((?x2239 (ite $x211 (+ (- ?x2592 ?x673) 1) (ite $x1341 (+ (- ?x2592 ?x1820) 1) ?x224))))
 (let ((?x1178 (ite $x1815 182 181)))
 (let (($x788 (>= ?x2592 ?x1178)))
 (let ((?x679 (ite $x1815 213 212)))
 (let (($x577 (>= ?x2592 ?x679)))
 (let ((?x2109 (ite $x577 (+ (- ?x2592 ?x679) 1) (ite $x788 (+ (- ?x2592 ?x1178) 1) ?x2239))))
 (let ((?x604 (ite $x1815 244 243)))
 (let (($x1589 (>= ?x2592 ?x604)))
 (let ((?x2532 (ite $x1815 274 273)))
 (let (($x325 (>= ?x2592 ?x2532)))
 (let ((?x235 (ite $x325 (+ (- ?x2592 ?x2532) 1) (ite $x1589 (+ (- ?x2592 ?x604) 1) ?x2109))))
 (let ((?x248 (ite $x1815 305 304)))
 (let (($x1853 (>= ?x2592 ?x248)))
 (let ((?x318 (ite $x1815 335 334)))
 (let (($x3178 (>= ?x2592 ?x318)))
 (let ((?x824 (ite $x3178 (+ (- ?x2592 ?x318) 1) (ite $x1853 (+ (- ?x2592 ?x248) 1) ?x235))))
 (let ((?x2279 (+ (* 0 12) 3)))
 (let ((?x362 (ite $x1341 5 (ite $x708 4 (ite $x466 3 (ite $x483 2 1))))))
 (let ((?x610 (ite $x1589 9 (ite $x577 8 (ite $x788 7 (ite $x211 6 ?x362))))))
 (let ((?x2069 (ite $x3178 12 (ite $x1853 11 (ite $x325 10 ?x610)))))
 (let ((?x1235 (+ ?x2069 ?x2279)))
 (let ((?x1743 (- ?x1235 1)))
 (let ((?x1298 (+ (mod ?x1743 12) 1)))
 (let ((?x2816 (ite (or (= ?x1298 4) (= ?x1298 6) (= ?x1298 9) (= ?x1298 11)) 30 31)))
 (let (($x1049 (and (= (mod (+ ?x3207 (+ 0 (div ?x1743 12))) 4) 0) (and (distinct (mod (+ ?x3207 (+ 0 (div ?x1743 12))) 100) 0) true))))
 (let (($x1958 (or $x1049 (= (mod (+ ?x3207 (+ 0 (div ?x1743 12))) 400) 0))))
 (let ((?x3211 (ite (= ?x1298 2) (ite $x1958 29 28) ?x2816)))
 (let ((?x3867 (ite (> 1 ?x824) 1 (ite (> ?x824 ?x3211) ?x3211 ?x824))))
 (let ((?x3847 (ite (> 1 ?x3867) 1 (ite (> ?x3867 ?x3211) ?x3211 ?x3867))))
 (let ((?x2730 (ite (= 2 ?x1298) (ite $x1958 31 31) (ite (= 1 ?x1298) (ite $x1958 0 0) 0))))
 (let ((?x2437 (ite (= 4 ?x1298) (ite $x1958 91 90) (ite (= 3 ?x1298) (ite $x1958 60 59) ?x2730))))
 (let ((?x3986 (ite (= 6 ?x1298) (ite $x1958 152 151) (ite (= 5 ?x1298) (ite $x1958 121 120) ?x2437))))
 (let ((?x3664 (ite (= 8 ?x1298) (ite $x1958 213 212) (ite (= 7 ?x1298) (ite $x1958 182 181) ?x3986))))
 (let ((?x3647 (ite (= 10 ?x1298) (ite $x1958 274 273) (ite (= 9 ?x1298) (ite $x1958 244 243) ?x3664))))
 (let ((?x3370 (ite (= 12 ?x1298) (ite $x1958 335 334) (ite (= 11 ?x1298) (ite $x1958 305 304) ?x3647))))
 (let ((?x4023 (+ (* 365 (- (+ ?x3207 (+ 0 (div ?x1743 12))) 1)) (div (- (+ ?x3207 (+ 0 (div ?x1743 12))) 1) 4))))
 (let ((?x4043 (+ (- ?x4023 (div (- (+ ?x3207 (+ 0 (div ?x1743 12))) 1) 100)) (div (- (+ ?x3207 (+ 0 (div ?x1743 12))) 1) 400))))
 (let ((?x2617 (+ (+ (- (+ (+ ?x4043 ?x3370) (- ?x3847 1)) 730179) 0) 730179)))
 (let ((?x3634 (mod ?x2617 146097)))
 (let ((?x3635 (div ?x3634 36524)))
 (let ((?x3608 (ite (<= 4 ?x3635) 3 ?x3635)))
 (let ((?x3610 (- ?x3634 (* ?x3608 36524))))
 (let ((?x4002 (mod ?x3610 1461)))
 (let ((?x4003 (div ?x4002 365)))
 (let ((?x4005 (ite (<= 4 ?x4003) 3 ?x4003)))
 (let ((?x2695 (+ (+ (* (div ?x2617 146097) 400) (* ?x3608 100)) (* (div ?x3610 1461) 4))))
 (let ((?x1536 (+ (+ ?x2695 ?x4005) 1)))
 (let (($x2705 (or (and (= (mod ?x1536 4) 0) (and (distinct (mod ?x1536 100) 0) true)) (= (mod ?x1536 400) 0))))
 (let ((?x792 (- ?x4002 (* ?x4005 365))))
 (let ((?x1265 (ite $x2705 31 31)))
 (let (($x1978 (>= ?x792 ?x1265)))
 (let ((?x288 (ite $x1978 (+ (- ?x792 ?x1265) 1) (+ (- ?x792 (ite $x2705 0 0)) 1))))
 (let ((?x1440 (ite $x2705 60 59)))
 (let (($x3548 (>= ?x792 ?x1440)))
 (let ((?x1848 (ite $x2705 91 90)))
 (let (($x3708 (>= ?x792 ?x1848)))
 (let ((?x2723 (ite $x3708 (+ (- ?x792 ?x1848) 1) (ite $x3548 (+ (- ?x792 ?x1440) 1) ?x288))))
 (let ((?x3125 (ite $x2705 121 120)))
 (let (($x3685 (>= ?x792 ?x3125)))
 (let ((?x2219 (ite $x2705 152 151)))
 (let (($x3728 (>= ?x792 ?x2219)))
 (let ((?x789 (ite $x3728 (+ (- ?x792 ?x2219) 1) (ite $x3685 (+ (- ?x792 ?x3125) 1) ?x2723))))
 (let ((?x2555 (ite $x2705 182 181)))
 (let (($x3712 (>= ?x792 ?x2555)))
 (let ((?x3722 (ite $x2705 213 212)))
 (let (($x505 (>= ?x792 ?x3722)))
 (let ((?x3128 (ite $x505 (+ (- ?x792 ?x3722) 1) (ite $x3712 (+ (- ?x792 ?x2555) 1) ?x789))))
 (let ((?x496 (ite $x2705 244 243)))
 (let (($x3698 (>= ?x792 ?x496)))
 (let ((?x713 (ite $x2705 274 273)))
 (let (($x3705 (>= ?x792 ?x713)))
 (let ((?x3026 (ite $x3705 (+ (- ?x792 ?x713) 1) (ite $x3698 (+ (- ?x792 ?x496) 1) ?x3128))))
 (let ((?x1640 (ite $x2705 305 304)))
 (let (($x3668 (>= ?x792 ?x1640)))
 (let ((?x1315 (ite $x2705 335 334)))
 (let (($x3711 (>= ?x792 ?x1315)))
 (let ((?x1025 (ite $x3711 (+ (- ?x792 ?x1315) 1) (ite $x3668 (+ (- ?x792 ?x1640) 1) ?x3026))))
 (let (($x3530 (= 0 0)))
 (let ((?x1018 (ite $x3530 ?x3847 ?x1025)))
 (= x_plus_day ?x1018)))))))))))))))))))))))))))))))))))))))))))))))))))))))))))))))))))))))))))))))))))))))))))))))))))))))))
(assert
 (= y_epoch x_plus_epoch))
(assert
 (= y_epoch 8460))
(check-sat)
